(set-info :smt-lib-version 2.6)
(set-info :category "crafted")
(set-logic QF_FFA)
(define-sort FF0 () (_ FiniteField 52435875175126190479447740508185965837690552500527637822603658699938581184513))
(declare-fun mul_n98_alt () FF0)
(declare-fun mul_n75_alt () FF0)
(declare-fun mul_n73_alt () FF0)
(declare-fun mul_n97_alt () FF0)
(declare-fun mul_n76_alt () FF0)
(declare-fun mul_n96_alt () FF0)
(declare-fun mul_n27_alt () FF0)
(declare-fun mul_n78_alt () FF0)
(declare-fun mul_n25_alt () FF0)
(declare-fun mul_n79_alt () FF0)
(declare-fun mul_n77_alt () FF0)
(declare-fun mul_n24_alt () FF0)
(declare-fun mul_n95_alt () FF0)
(declare-fun mul_n83_alt () FF0)
(declare-fun mul_n94_alt () FF0)
(declare-fun mul_n11_alt () FF0)
(declare-fun mul_n87_alt () FF0)
(declare-fun mul_n93_alt () FF0)
(declare-fun mul_n51_alt () FF0)
(declare-fun mul_n52_alt () FF0)
(declare-fun mul_n90_alt () FF0)
(declare-fun mul_n92_alt () FF0)
(declare-fun mul_n91_alt () FF0)
(declare-fun mul_n57_alt () FF0)
(declare-fun h_n7_alt () FF0)
(declare-fun mul_n89_alt () FF0)
(declare-fun a_n10_alt () FF0)
(declare-fun mul_n18_alt () FF0)
(declare-fun mul_n17_alt () FF0)
(declare-fun mul_n28_alt () FF0)
(declare-fun mul_n88_alt () FF0)
(declare-fun mul_n20_alt () FF0)
(declare-fun mul_n21_alt () FF0)
(declare-fun mul_n29_alt () FF0)
(declare-fun f_n1_alt () FF0)
(declare-fun mul_n54_alt () FF0)
(declare-fun mul_n84_alt () FF0)
(declare-fun mul_n86_alt () FF0)
(declare-fun mul_n64_alt () FF0)
(declare-fun mul_n85_alt () FF0)
(declare-fun j_n3_alt () FF0)
(declare-fun mul_n65_alt () FF0)
(declare-fun mul_n80_alt () FF0)
(declare-fun mul_n82_alt () FF0)
(declare-fun mul_n81_alt () FF0)
(declare-fun b_n8_alt () FF0)
(declare-fun g_n9_alt () FF0)
(declare-fun mul_n12_alt () FF0)
(declare-fun mul_n74_alt () FF0)
(declare-fun c_n6_alt () FF0)
(declare-fun mul_n72_alt () FF0)
(declare-fun mul_n58_alt () FF0)
(declare-fun mul_n71_alt () FF0)
(declare-fun mul_n70_alt () FF0)
(declare-fun mul_n69_alt () FF0)
(declare-fun mul_n68_alt () FF0)
(declare-fun mul_n56_alt () FF0)
(declare-fun mul_n67_alt () FF0)
(declare-fun mul_n53_alt () FF0)
(declare-fun mul_n66_alt () FF0)
(declare-fun mul_n60_alt () FF0)
(declare-fun mul_n63_alt () FF0)
(declare-fun mul_n62_alt () FF0)
(declare-fun mul_n61_alt () FF0)
(declare-fun mul_n23_alt () FF0)
(declare-fun mul_n59_alt () FF0)
(declare-fun mul_n50_alt () FF0)
(declare-fun mul_n30_alt () FF0)
(declare-fun mul_n26_alt () FF0)
(declare-fun mul_n45_alt () FF0)
(declare-fun mul_n55_alt () FF0)
(declare-fun e_n2_alt () FF0)
(declare-fun mul_n49_alt () FF0)
(declare-fun i_n5_alt () FF0)
(declare-fun mul_n48_alt () FF0)
(declare-fun mul_n19_alt () FF0)
(declare-fun mul_n47_alt () FF0)
(declare-fun mul_n46_alt () FF0)
(declare-fun mul_n44_alt () FF0)
(declare-fun mul_n43_alt () FF0)
(declare-fun mul_n42_alt () FF0)
(declare-fun mul_n36_alt () FF0)
(declare-fun mul_n41_alt () FF0)
(declare-fun mul_n31_alt () FF0)
(declare-fun mul_n40_alt () FF0)
(declare-fun mul_n39_alt () FF0)
(declare-fun mul_n38_alt () FF0)
(declare-fun mul_n37_alt () FF0)
(declare-fun d_n4_alt () FF0)
(declare-fun mul_n35_alt () FF0)
(declare-fun mul_n34_alt () FF0)
(declare-fun mul_n33_alt () FF0)
(declare-fun mul_n32_alt () FF0)
(declare-fun mul_n22_alt () FF0)
(declare-fun mul_n16_alt () FF0)
(declare-fun mul_n15_alt () FF0)
(declare-fun mul_n14_alt () FF0)
(declare-fun mul_n13_alt () FF0)
(declare-fun mul_n98 () FF0)
(declare-fun mul_n75 () FF0)
(declare-fun mul_n73 () FF0)
(declare-fun mul_n97 () FF0)
(declare-fun mul_n76 () FF0)
(declare-fun mul_n96 () FF0)
(declare-fun mul_n27 () FF0)
(declare-fun mul_n78 () FF0)
(declare-fun mul_n25 () FF0)
(declare-fun mul_n79 () FF0)
(declare-fun mul_n77 () FF0)
(declare-fun mul_n24 () FF0)
(declare-fun mul_n95 () FF0)
(declare-fun mul_n83 () FF0)
(declare-fun mul_n94 () FF0)
(declare-fun mul_n11 () FF0)
(declare-fun mul_n87 () FF0)
(declare-fun mul_n93 () FF0)
(declare-fun mul_n51 () FF0)
(declare-fun mul_n52 () FF0)
(declare-fun mul_n90 () FF0)
(declare-fun mul_n92 () FF0)
(declare-fun mul_n91 () FF0)
(declare-fun mul_n57 () FF0)
(declare-fun h_n7 () FF0)
(declare-fun mul_n89 () FF0)
(declare-fun a_n10 () FF0)
(declare-fun mul_n18 () FF0)
(declare-fun mul_n17 () FF0)
(declare-fun mul_n28 () FF0)
(declare-fun mul_n88 () FF0)
(declare-fun mul_n20 () FF0)
(declare-fun mul_n21 () FF0)
(declare-fun mul_n29 () FF0)
(declare-fun f_n1 () FF0)
(declare-fun mul_n54 () FF0)
(declare-fun mul_n84 () FF0)
(declare-fun mul_n86 () FF0)
(declare-fun mul_n64 () FF0)
(declare-fun mul_n85 () FF0)
(declare-fun j_n3 () FF0)
(declare-fun mul_n65 () FF0)
(declare-fun mul_n80 () FF0)
(declare-fun mul_n82 () FF0)
(declare-fun mul_n81 () FF0)
(declare-fun b_n8 () FF0)
(declare-fun g_n9 () FF0)
(declare-fun mul_n12 () FF0)
(declare-fun mul_n74 () FF0)
(declare-fun c_n6 () FF0)
(declare-fun mul_n72 () FF0)
(declare-fun mul_n58 () FF0)
(declare-fun mul_n71 () FF0)
(declare-fun mul_n70 () FF0)
(declare-fun mul_n69 () FF0)
(declare-fun mul_n68 () FF0)
(declare-fun mul_n56 () FF0)
(declare-fun mul_n67 () FF0)
(declare-fun mul_n53 () FF0)
(declare-fun mul_n66 () FF0)
(declare-fun mul_n60 () FF0)
(declare-fun mul_n63 () FF0)
(declare-fun mul_n62 () FF0)
(declare-fun mul_n61 () FF0)
(declare-fun mul_n23 () FF0)
(declare-fun mul_n59 () FF0)
(declare-fun mul_n50 () FF0)
(declare-fun mul_n30 () FF0)
(declare-fun mul_n26 () FF0)
(declare-fun mul_n45 () FF0)
(declare-fun mul_n55 () FF0)
(declare-fun e_n2 () FF0)
(declare-fun mul_n49 () FF0)
(declare-fun i_n5 () FF0)
(declare-fun mul_n48 () FF0)
(declare-fun mul_n19 () FF0)
(declare-fun mul_n47 () FF0)
(declare-fun mul_n46 () FF0)
(declare-fun mul_n44 () FF0)
(declare-fun mul_n43 () FF0)
(declare-fun mul_n42 () FF0)
(declare-fun mul_n36 () FF0)
(declare-fun mul_n41 () FF0)
(declare-fun mul_n31 () FF0)
(declare-fun mul_n40 () FF0)
(declare-fun mul_n39 () FF0)
(declare-fun mul_n38 () FF0)
(declare-fun mul_n37 () FF0)
(declare-fun d_n4 () FF0)
(declare-fun mul_n35 () FF0)
(declare-fun mul_n34 () FF0)
(declare-fun mul_n33 () FF0)
(declare-fun mul_n32 () FF0)
(declare-fun mul_n22 () FF0)
(declare-fun mul_n16 () FF0)
(declare-fun mul_n15 () FF0)
(declare-fun mul_n14 () FF0)
(declare-fun mul_n13 () FF0)
(declare-fun return_n0_alt () FF0)
(declare-fun return_n0 () FF0)
(assert 
  (let ((let0 mul_n98_alt))
  (let ((let1 (as ff52435875175126190479447740508185965837690552500527637822603658699938581184512 FF0)))
  (let ((let2 mul_n75_alt))
  (let ((let3 (ff.mul let2 let1)))
  (let ((let4 mul_n73_alt))
  (let ((let5 (ff.add let4 let3)))
  (let ((let6 mul_n97_alt))
  (let ((let7 (ff.mul let6 let5)))
  (let ((let8 (= let7 let0)))
  (let ((let9 mul_n76_alt))
  (let ((let10 mul_n96_alt))
  (let ((let11 (ff.mul let10 let9)))
  (let ((let12 (= let11 let6)))
  (let ((let13 mul_n27_alt))
  (let ((let14 (ff.mul let13 let1)))
  (let ((let15 mul_n78_alt))
  (let ((let16 mul_n25_alt))
  (let ((let17 mul_n79_alt))
  (let ((let18 (ff.mul let17 let1)))
  (let ((let19 mul_n77_alt))
  (let ((let20 mul_n24_alt))
  (let ((let21 (ff.add let20 let19 let18 let16 let15 let14)))
  (let ((let22 mul_n95_alt))
  (let ((let23 (ff.mul let22 let21)))
  (let ((let24 (= let23 let10)))
  (let ((let25 mul_n83_alt))
  (let ((let26 mul_n94_alt))
  (let ((let27 (ff.mul let26 let25)))
  (let ((let28 (= let27 let22)))
  (let ((let29 (as ff1 FF0)))
  (let ((let30 mul_n11_alt))
  (let ((let31 (ff.mul let30 let1)))
  (let ((let32 mul_n87_alt))
  (let ((let33 (ff.mul let32 let1)))
  (let ((let34 (ff.add let33 let31 let29)))
  (let ((let35 mul_n93_alt))
  (let ((let36 (ff.mul let35 let34)))
  (let ((let37 (= let36 let26)))
  (let ((let38 (as ff2 FF0)))
  (let ((let39 mul_n51_alt))
  (let ((let40 (ff.mul let39 let1)))
  (let ((let41 (ff.mul let16 let1)))
  (let ((let42 mul_n52_alt))
  (let ((let43 (ff.mul let42 let1)))
  (let ((let44 mul_n90_alt))
  (let ((let45 (ff.mul let44 let1)))
  (let ((let46 (ff.add let45 let43 let41 let40 let38)))
  (let ((let47 mul_n92_alt))
  (let ((let48 (ff.mul let47 let1)))
  (let ((let49 (ff.add let48 let29)))
  (let ((let50 (ff.mul let49 let46)))
  (let ((let51 (= let50 let35)))
  (let ((let52 mul_n91_alt))
  (let ((let53 mul_n57_alt))
  (let ((let54 (ff.mul let53 let1)))
  (let ((let55 (ff.add let54 let29)))
  (let ((let56 (ff.mul let55 let52)))
  (let ((let57 (= let56 let47)))
  (let ((let58 h_n7_alt))
  (let ((let59 (ff.mul let58 let1)))
  (let ((let60 (ff.add let59 let29)))
  (let ((let61 (ff.mul let58 let38)))
  (let ((let62 (ff.mul let61 let60)))
  (let ((let63 (= let62 let52)))
  (let ((let64 mul_n89_alt))
  (let ((let65 (ff.add let43 let64 let41 let40 let29)))
  (let ((let66 a_n10_alt))
  (let ((let67 (ff.mul let66 let1)))
  (let ((let68 mul_n18_alt))
  (let ((let69 mul_n17_alt))
  (let ((let70 (ff.add let69 let68 let67)))
  (let ((let71 (ff.mul let70 let65)))
  (let ((let72 (= let71 let44)))
  (let ((let73 mul_n28_alt))
  (let ((let74 mul_n88_alt))
  (let ((let75 (ff.mul let74 let73)))
  (let ((let76 (= let75 let64)))
  (let ((let77 mul_n20_alt))
  (let ((let78 (ff.mul let73 let1)))
  (let ((let79 mul_n21_alt))
  (let ((let80 (ff.mul let79 let1)))
  (let ((let81 mul_n29_alt))
  (let ((let82 (ff.add let81 let80 let78 let77)))
  (let ((let83 f_n1_alt))
  (let ((let84 (ff.mul let83 let1)))
  (let ((let85 (ff.add let84 let29)))
  (let ((let86 (ff.mul let85 let82)))
  (let ((let87 (= let86 let74)))
  (let ((let88 mul_n54_alt))
  (let ((let89 (ff.mul let88 let1)))
  (let ((let90 mul_n84_alt))
  (let ((let91 (ff.add let67 let90 let69 let13 let31 let68 let73 let89 let1)))
  (let ((let92 mul_n86_alt))
  (let ((let93 (ff.mul let92 let91)))
  (let ((let94 (= let93 let32)))
  (let ((let95 mul_n64_alt))
  (let ((let96 mul_n85_alt))
  (let ((let97 (ff.mul let96 let1)))
  (let ((let98 (ff.add let97 let29)))
  (let ((let99 (ff.mul let98 let95)))
  (let ((let100 (= let99 let92)))
  (let ((let101 j_n3_alt))
  (let ((let102 (ff.add let41 let29)))
  (let ((let103 (ff.mul let102 let101)))
  (let ((let104 (= let103 let96)))
  (let ((let105 (ff.add let14 let29)))
  (let ((let106 (ff.mul let88 let38)))
  (let ((let107 (as ff52435875175126190479447740508185965837690552500527637822603658699938581184511 FF0)))
  (let ((let108 (ff.mul let69 let107)))
  (let ((let109 (ff.mul let73 let107)))
  (let ((let110 (ff.mul let66 let38)))
  (let ((let111 (ff.mul let68 let107)))
  (let ((let112 (ff.add let111 let110 let109 let108 let106 let38)))
  (let ((let113 (ff.mul let112 let105)))
  (let ((let114 (= let113 let90)))
  (let ((let115 (ff.mul let101 let1)))
  (let ((let116 mul_n65_alt))
  (let ((let117 (ff.mul let116 let1)))
  (let ((let118 mul_n80_alt))
  (let ((let119 (ff.mul let118 let1)))
  (let ((let120 (ff.add let119 let117 let115 let38)))
  (let ((let121 mul_n82_alt))
  (let ((let122 (ff.mul let121 let120)))
  (let ((let123 (= let122 let25)))
  (let ((let124 mul_n81_alt))
  (let ((let125 (ff.mul let20 let1)))
  (let ((let126 (ff.add let125 let29)))
  (let ((let127 (ff.mul let126 let124)))
  (let ((let128 (= let127 let121)))
  (let ((let129 b_n8_alt))
  (let ((let130 g_n9_alt))
  (let ((let131 (ff.mul let130 let129)))
  (let ((let132 (= let131 let124)))
  (let ((let133 (ff.add let117 let29)))
  (let ((let134 (ff.mul let101 let107)))
  (let ((let135 (ff.add let134 let38)))
  (let ((let136 (ff.mul let135 let133)))
  (let ((let137 (= let136 let118)))
  (let ((let138 (ff.add let20 let19 let16 let1)))
  (let ((let139 (ff.mul let13 let107)))
  (let ((let140 (ff.mul let15 let38)))
  (let ((let141 (ff.add let140 let139 let38)))
  (let ((let142 (ff.mul let141 let138)))
  (let ((let143 (= let142 let17)))
  (let ((let144 (ff.add let13 let101 let1)))
  (let ((let145 mul_n12_alt))
  (let ((let146 (ff.add let145 let84 let31 let29)))
  (let ((let147 (ff.mul let146 let144)))
  (let ((let148 (= let147 let15)))
  (let ((let149 (ff.mul let20 let107)))
  (let ((let150 (ff.add let149 let38)))
  (let ((let151 (ff.mul let150 let102)))
  (let ((let152 (= let151 let19)))
  (let ((let153 (ff.mul let130 let4)))
  (let ((let154 (= let153 let9)))
  (let ((let155 (ff.mul let69 let1)))
  (let ((let156 (ff.add let155 let4)))
  (let ((let157 mul_n74_alt))
  (let ((let158 (ff.mul let157 let1)))
  (let ((let159 (ff.add let158 let29)))
  (let ((let160 (ff.mul let159 let156)))
  (let ((let161 (= let160 let2)))
  (let ((let162 c_n6_alt))
  (let ((let163 (ff.mul let162 let1)))
  (let ((let164 (ff.add let163 let29)))
  (let ((let165 (ff.mul let77 let1)))
  (let ((let166 (ff.add let165 let29)))
  (let ((let167 (ff.mul let166 let164)))
  (let ((let168 (= let167 let157)))
  (let ((let169 (ff.add let43 let41 let40 let38)))
  (let ((let170 mul_n72_alt))
  (let ((let171 (ff.mul let170 let169)))
  (let ((let172 (= let171 let4)))
  (let ((let173 mul_n58_alt))
  (let ((let174 (ff.add let173 let163 let29)))
  (let ((let175 mul_n71_alt))
  (let ((let176 (ff.mul let175 let174)))
  (let ((let177 (= let176 let170)))
  (let ((let178 (ff.add let40 let29)))
  (let ((let179 mul_n70_alt))
  (let ((let180 (ff.mul let179 let178)))
  (let ((let181 (= let180 let175)))
  (let ((let182 mul_n69_alt))
  (let ((let183 (ff.mul let182 let60)))
  (let ((let184 (= let183 let179)))
  (let ((let185 mul_n68_alt))
  (let ((let186 (ff.mul let185 let66)))
  (let ((let187 (= let186 let182)))
  (let ((let188 mul_n56_alt))
  (let ((let189 (ff.mul let188 let1)))
  (let ((let190 (ff.add let189 let29)))
  (let ((let191 (ff.mul let190 let166)))
  (let ((let192 (= let191 let185)))
  (let ((let193 mul_n67_alt))
  (let ((let194 mul_n53_alt))
  (let ((let195 (ff.mul let194 let1)))
  (let ((let196 (ff.add let195 let79 let42 let16 let165 let39)))
  (let ((let197 mul_n66_alt))
  (let ((let198 (ff.add let116 let197 let115)))
  (let ((let199 (ff.mul let198 let196)))
  (let ((let200 (= let199 let193)))
  (let ((let201 (ff.mul let116 let107)))
  (let ((let202 (ff.add let201 let38)))
  (let ((let203 (ff.mul let202 let101)))
  (let ((let204 (= let203 let197)))
  (let ((let205 (ff.mul let173 let1)))
  (let ((let206 (ff.add let205 let162)))
  (let ((let207 (ff.mul let95 let1)))
  (let ((let208 (ff.add let207 let29)))
  (let ((let209 (ff.mul let208 let206)))
  (let ((let210 (= let209 let116)))
  (let ((let211 mul_n60_alt))
  (let ((let212 (ff.mul let211 let1)))
  (let ((let213 (ff.add let212 let29)))
  (let ((let214 mul_n63_alt))
  (let ((let215 (ff.mul let214 let213)))
  (let ((let216 (= let215 let95)))
  (let ((let217 (ff.mul let81 let1)))
  (let ((let218 (ff.add let217 let79 let73 let165 let29)))
  (let ((let219 mul_n62_alt))
  (let ((let220 (ff.mul let219 let218)))
  (let ((let221 (= let220 let214)))
  (let ((let222 (ff.add let31 let29)))
  (let ((let223 mul_n61_alt))
  (let ((let224 (ff.mul let223 let222)))
  (let ((let225 (= let224 let219)))
  (let ((let226 (ff.mul let162 let39)))
  (let ((let227 (= let226 let223)))
  (let ((let228 mul_n23_alt))
  (let ((let229 (ff.mul let228 let1)))
  (let ((let230 (ff.add let229 let29)))
  (let ((let231 mul_n59_alt))
  (let ((let232 (ff.mul let231 let230)))
  (let ((let233 (= let232 let211)))
  (let ((let234 (ff.mul let85 let129)))
  (let ((let235 (= let234 let231)))
  (let ((let236 (ff.add let189 let162)))
  (let ((let237 (ff.mul let55 let236)))
  (let ((let238 (= let237 let173)))
  (let ((let239 mul_n50_alt))
  (let ((let240 mul_n30_alt))
  (let ((let241 (ff.mul let240 let1)))
  (let ((let242 mul_n26_alt))
  (let ((let243 (ff.mul let242 let1)))
  (let ((let244 (ff.add let14 let243 let241 let38)))
  (let ((let245 (ff.mul let244 let239)))
  (let ((let246 (= let245 let53)))
  (let ((let247 mul_n45_alt))
  (let ((let248 (ff.mul let247 let1)))
  (let ((let249 (ff.add let248 let29)))
  (let ((let250 mul_n55_alt))
  (let ((let251 (ff.mul let250 let249)))
  (let ((let252 (= let251 let188)))
  (let ((let253 (ff.add let68 let67 let73 let69 let89)))
  (let ((let254 (ff.mul let69 let253)))
  (let ((let255 (= let254 let250)))
  (let ((let256 (ff.mul let73 let38)))
  (let ((let257 (ff.mul let256 let70)))
  (let ((let258 (= let257 let88)))
  (let ((let259 (ff.add let165 let79 let29)))
  (let ((let260 (ff.mul let39 let38)))
  (let ((let261 (ff.mul let16 let38)))
  (let ((let262 (ff.mul let42 let38)))
  (let ((let263 (ff.add let262 let261 let260 let107)))
  (let ((let264 (ff.mul let263 let259)))
  (let ((let265 (= let264 let194)))
  (let ((let266 (ff.mul let16 let107)))
  (let ((let267 (ff.add let266 let38)))
  (let ((let268 (ff.mul let267 let178)))
  (let ((let269 (= let268 let42)))
  (let ((let270 (ff.mul let146 let239)))
  (let ((let271 (= let270 let39)))
  (let ((let272 e_n2_alt))
  (let ((let273 (ff.mul let272 let1)))
  (let ((let274 (ff.add let273 let29)))
  (let ((let275 mul_n49_alt))
  (let ((let276 (ff.mul let275 let274)))
  (let ((let277 (= let276 let239)))
  (let ((let278 i_n5_alt))
  (let ((let279 (ff.mul let278 let1)))
  (let ((let280 (ff.add let279 let29)))
  (let ((let281 mul_n48_alt))
  (let ((let282 (ff.mul let281 let280)))
  (let ((let283 (= let282 let275)))
  (let ((let284 (ff.mul let145 let1)))
  (let ((let285 mul_n19_alt))
  (let ((let286 (ff.mul let285 let1)))
  (let ((let287 (ff.add let286 let284 let83 let30)))
  (let ((let288 mul_n47_alt))
  (let ((let289 (ff.mul let288 let287)))
  (let ((let290 (= let289 let281)))
  (let ((let291 mul_n46_alt))
  (let ((let292 (ff.mul let291 let228)))
  (let ((let293 (= let292 let288)))
  (let ((let294 (ff.mul let130 let249)))
  (let ((let295 (= let294 let291)))
  (let ((let296 mul_n44_alt))
  (let ((let297 (ff.mul let296 let126)))
  (let ((let298 (= let297 let247)))
  (let ((let299 mul_n43_alt))
  (let ((let300 (ff.mul let299 let102)))
  (let ((let301 (= let300 let296)))
  (let ((let302 mul_n42_alt))
  (let ((let303 (ff.mul let302 let82)))
  (let ((let304 (= let303 let299)))
  (let ((let305 mul_n36_alt))
  (let ((let306 (ff.mul let305 let1)))
  (let ((let307 (ff.add let306 let29)))
  (let ((let308 mul_n41_alt))
  (let ((let309 (ff.mul let308 let307)))
  (let ((let310 (= let309 let302)))
  (let ((let311 mul_n31_alt))
  (let ((let312 mul_n40_alt))
  (let ((let313 (ff.mul let312 let311)))
  (let ((let314 (= let313 let308)))
  (let ((let315 mul_n39_alt))
  (let ((let316 (ff.mul let315 let130)))
  (let ((let317 (= let316 let312)))
  (let ((let318 mul_n38_alt))
  (let ((let319 (ff.mul let318 let16)))
  (let ((let320 (= let319 let315)))
  (let ((let321 mul_n37_alt))
  (let ((let322 (ff.mul let321 let307)))
  (let ((let323 (= let322 let318)))
  (let ((let324 (ff.add let243 let29)))
  (let ((let325 d_n4_alt))
  (let ((let326 (ff.mul let325 let324)))
  (let ((let327 (= let326 let321)))
  (let ((let328 mul_n35_alt))
  (let ((let329 (ff.mul let328 let126)))
  (let ((let330 (= let329 let305)))
  (let ((let331 mul_n34_alt))
  (let ((let332 (ff.mul let331 let287)))
  (let ((let333 (= let332 let328)))
  (let ((let334 mul_n33_alt))
  (let ((let335 (ff.mul let334 let244)))
  (let ((let336 (= let335 let331)))
  (let ((let337 mul_n32_alt))
  (let ((let338 (ff.mul let337 let83)))
  (let ((let339 (= let338 let334)))
  (let ((let340 (ff.mul let311 let1)))
  (let ((let341 (ff.add let340 let29)))
  (let ((let342 (ff.add let77 let80)))
  (let ((let343 (ff.mul let342 let341)))
  (let ((let344 (= let343 let337)))
  (let ((let345 (ff.add let155 let29)))
  (let ((let346 (ff.mul let345 let66)))
  (let ((let347 (= let346 let311)))
  (let ((let348 (ff.add let139 let38)))
  (let ((let349 (ff.mul let348 let324)))
  (let ((let350 (= let349 let240)))
  (let ((let351 (ff.mul let256 let259)))
  (let ((let352 (= let351 let81)))
  (let ((let353 (ff.mul let129 let1)))
  (let ((let354 (ff.add let353 let29)))
  (let ((let355 (ff.mul let105 let354)))
  (let ((let356 (= let355 let73)))
  (let ((let357 (ff.mul let354 let242)))
  (let ((let358 (= let357 let13)))
  (let ((let359 (ff.mul let20 let274)))
  (let ((let360 (= let359 let242)))
  (let ((let361 (ff.add let284 let83 let30)))
  (let ((let362 (ff.mul let30 let361)))
  (let ((let363 (= let362 let16)))
  (let ((let364 (ff.add let115 let29)))
  (let ((let365 (ff.mul let325 let364)))
  (let ((let366 (= let365 let20)))
  (let ((let367 (ff.mul let68 let1)))
  (let ((let368 (ff.add let155 let367 let66 let29)))
  (let ((let369 mul_n22_alt))
  (let ((let370 (ff.mul let369 let368)))
  (let ((let371 (= let370 let228)))
  (let ((let372 (ff.mul let130 let1)))
  (let ((let373 (ff.add let372 let29)))
  (let ((let374 (ff.mul let373 let373)))
  (let ((let375 (= let374 let369)))
  (let ((let376 (ff.add let77 let272 let1)))
  (let ((let377 (ff.mul let60 let376)))
  (let ((let378 (= let377 let79)))
  (let ((let379 (ff.mul let85 let287)))
  (let ((let380 (= let379 let77)))
  (let ((let381 (ff.add let68 let67 let284 let69 let83 let30 let1)))
  (let ((let382 (ff.mul let278 let381)))
  (let ((let383 (= let382 let285)))
  (let ((let384 (ff.mul let110 let345)))
  (let ((let385 (= let384 let68)))
  (let ((let386 mul_n16_alt))
  (let ((let387 (ff.mul let386 let164)))
  (let ((let388 (= let387 let69)))
  (let ((let389 (ff.add let67 let29)))
  (let ((let390 mul_n15_alt))
  (let ((let391 (ff.mul let390 let389)))
  (let ((let392 (= let391 let386)))
  (let ((let393 mul_n14_alt))
  (let ((let394 (ff.mul let393 let274)))
  (let ((let395 (= let394 let390)))
  (let ((let396 (ff.mul let325 let1)))
  (let ((let397 (ff.add let396 let29)))
  (let ((let398 mul_n13_alt))
  (let ((let399 (ff.mul let398 let397)))
  (let ((let400 (= let399 let393)))
  (let ((let401 (ff.mul let280 let164)))
  (let ((let402 (= let401 let398)))
  (let ((let403 (ff.mul let30 let38)))
  (let ((let404 (ff.mul let403 let83)))
  (let ((let405 (= let404 let145)))
  (let ((let406 (ff.mul let58 let129)))
  (let ((let407 (= let406 let30)))
  (let ((let408 (and let407 let405 let402 let400 let395 let392 let388 let385 let383 let380 let378 let375 let371 let366 let363 let360 let358 let356 let352 let350 let347 let344 let339 let336 let333 let330 let327 let323 let320 let317 let314 let310 let304 let301 let298 let295 let293 let290 let283 let277 let271 let269 let265 let258 let255 let252 let246 let238 let235 let233 let227 let225 let221 let216 let210 let204 let200 let192 let187 let184 let181 let177 let172 let168 let161 let154 let152 let148 let143 let137 let132 let128 let123 let114 let104 let100 let94 let87 let76 let72 let63 let57 let51 let37 let28 let24 let12 let8)))
  (let ((let409 mul_n98))
  (let ((let410 mul_n75))
  (let ((let411 (ff.mul let410 let1)))
  (let ((let412 mul_n73))
  (let ((let413 (ff.add let412 let411)))
  (let ((let414 mul_n97))
  (let ((let415 (ff.mul let414 let413)))
  (let ((let416 (= let415 let409)))
  (let ((let417 mul_n76))
  (let ((let418 mul_n96))
  (let ((let419 (ff.mul let418 let417)))
  (let ((let420 (= let419 let414)))
  (let ((let421 mul_n27))
  (let ((let422 (ff.mul let421 let1)))
  (let ((let423 mul_n78))
  (let ((let424 mul_n25))
  (let ((let425 mul_n79))
  (let ((let426 (ff.mul let425 let1)))
  (let ((let427 mul_n77))
  (let ((let428 mul_n24))
  (let ((let429 (ff.add let428 let427 let426 let424 let423 let422)))
  (let ((let430 mul_n95))
  (let ((let431 (ff.mul let430 let429)))
  (let ((let432 (= let431 let418)))
  (let ((let433 mul_n83))
  (let ((let434 mul_n94))
  (let ((let435 (ff.mul let434 let433)))
  (let ((let436 (= let435 let430)))
  (let ((let437 mul_n11))
  (let ((let438 (ff.mul let437 let1)))
  (let ((let439 mul_n87))
  (let ((let440 (ff.mul let439 let1)))
  (let ((let441 (ff.add let440 let438 let29)))
  (let ((let442 mul_n93))
  (let ((let443 (ff.mul let442 let441)))
  (let ((let444 (= let443 let434)))
  (let ((let445 mul_n51))
  (let ((let446 (ff.mul let445 let1)))
  (let ((let447 (ff.mul let424 let1)))
  (let ((let448 mul_n52))
  (let ((let449 (ff.mul let448 let1)))
  (let ((let450 mul_n90))
  (let ((let451 (ff.mul let450 let1)))
  (let ((let452 (ff.add let451 let449 let447 let446 let38)))
  (let ((let453 mul_n92))
  (let ((let454 (ff.mul let453 let1)))
  (let ((let455 (ff.add let454 let29)))
  (let ((let456 (ff.mul let455 let452)))
  (let ((let457 (= let456 let442)))
  (let ((let458 mul_n91))
  (let ((let459 mul_n57))
  (let ((let460 (ff.mul let459 let1)))
  (let ((let461 (ff.add let460 let29)))
  (let ((let462 (ff.mul let461 let458)))
  (let ((let463 (= let462 let453)))
  (let ((let464 h_n7))
  (let ((let465 (ff.mul let464 let1)))
  (let ((let466 (ff.add let465 let29)))
  (let ((let467 (ff.mul let464 let38)))
  (let ((let468 (ff.mul let467 let466)))
  (let ((let469 (= let468 let458)))
  (let ((let470 mul_n89))
  (let ((let471 (ff.add let449 let470 let447 let446 let29)))
  (let ((let472 a_n10))
  (let ((let473 (ff.mul let472 let1)))
  (let ((let474 mul_n18))
  (let ((let475 mul_n17))
  (let ((let476 (ff.add let475 let474 let473)))
  (let ((let477 (ff.mul let476 let471)))
  (let ((let478 (= let477 let450)))
  (let ((let479 mul_n28))
  (let ((let480 mul_n88))
  (let ((let481 (ff.mul let480 let479)))
  (let ((let482 (= let481 let470)))
  (let ((let483 mul_n20))
  (let ((let484 (ff.mul let479 let1)))
  (let ((let485 mul_n21))
  (let ((let486 (ff.mul let485 let1)))
  (let ((let487 mul_n29))
  (let ((let488 (ff.add let487 let486 let484 let483)))
  (let ((let489 f_n1))
  (let ((let490 (ff.mul let489 let1)))
  (let ((let491 (ff.add let490 let29)))
  (let ((let492 (ff.mul let491 let488)))
  (let ((let493 (= let492 let480)))
  (let ((let494 mul_n54))
  (let ((let495 (ff.mul let494 let1)))
  (let ((let496 mul_n84))
  (let ((let497 (ff.add let473 let496 let475 let421 let438 let474 let479 let495 let1)))
  (let ((let498 mul_n86))
  (let ((let499 (ff.mul let498 let497)))
  (let ((let500 (= let499 let439)))
  (let ((let501 mul_n64))
  (let ((let502 mul_n85))
  (let ((let503 (ff.mul let502 let1)))
  (let ((let504 (ff.add let503 let29)))
  (let ((let505 (ff.mul let504 let501)))
  (let ((let506 (= let505 let498)))
  (let ((let507 j_n3))
  (let ((let508 (ff.add let447 let29)))
  (let ((let509 (ff.mul let508 let507)))
  (let ((let510 (= let509 let502)))
  (let ((let511 (ff.add let422 let29)))
  (let ((let512 (ff.mul let494 let38)))
  (let ((let513 (ff.mul let475 let107)))
  (let ((let514 (ff.mul let479 let107)))
  (let ((let515 (ff.mul let472 let38)))
  (let ((let516 (ff.mul let474 let107)))
  (let ((let517 (ff.add let516 let515 let514 let513 let512 let38)))
  (let ((let518 (ff.mul let517 let511)))
  (let ((let519 (= let518 let496)))
  (let ((let520 (ff.mul let507 let1)))
  (let ((let521 mul_n65))
  (let ((let522 (ff.mul let521 let1)))
  (let ((let523 mul_n80))
  (let ((let524 (ff.mul let523 let1)))
  (let ((let525 (ff.add let524 let522 let520 let38)))
  (let ((let526 mul_n82))
  (let ((let527 (ff.mul let526 let525)))
  (let ((let528 (= let527 let433)))
  (let ((let529 mul_n81))
  (let ((let530 (ff.mul let428 let1)))
  (let ((let531 (ff.add let530 let29)))
  (let ((let532 (ff.mul let531 let529)))
  (let ((let533 (= let532 let526)))
  (let ((let534 b_n8))
  (let ((let535 g_n9))
  (let ((let536 (ff.mul let535 let534)))
  (let ((let537 (= let536 let529)))
  (let ((let538 (ff.add let522 let29)))
  (let ((let539 (ff.mul let507 let107)))
  (let ((let540 (ff.add let539 let38)))
  (let ((let541 (ff.mul let540 let538)))
  (let ((let542 (= let541 let523)))
  (let ((let543 (ff.add let428 let427 let424 let1)))
  (let ((let544 (ff.mul let421 let107)))
  (let ((let545 (ff.mul let423 let38)))
  (let ((let546 (ff.add let545 let544 let38)))
  (let ((let547 (ff.mul let546 let543)))
  (let ((let548 (= let547 let425)))
  (let ((let549 (ff.add let421 let507 let1)))
  (let ((let550 mul_n12))
  (let ((let551 (ff.add let550 let490 let438 let29)))
  (let ((let552 (ff.mul let551 let549)))
  (let ((let553 (= let552 let423)))
  (let ((let554 (ff.mul let428 let107)))
  (let ((let555 (ff.add let554 let38)))
  (let ((let556 (ff.mul let555 let508)))
  (let ((let557 (= let556 let427)))
  (let ((let558 (ff.mul let535 let412)))
  (let ((let559 (= let558 let417)))
  (let ((let560 (ff.mul let475 let1)))
  (let ((let561 (ff.add let560 let412)))
  (let ((let562 mul_n74))
  (let ((let563 (ff.mul let562 let1)))
  (let ((let564 (ff.add let563 let29)))
  (let ((let565 (ff.mul let564 let561)))
  (let ((let566 (= let565 let410)))
  (let ((let567 c_n6))
  (let ((let568 (ff.mul let567 let1)))
  (let ((let569 (ff.add let568 let29)))
  (let ((let570 (ff.mul let483 let1)))
  (let ((let571 (ff.add let570 let29)))
  (let ((let572 (ff.mul let571 let569)))
  (let ((let573 (= let572 let562)))
  (let ((let574 (ff.add let449 let447 let446 let38)))
  (let ((let575 mul_n72))
  (let ((let576 (ff.mul let575 let574)))
  (let ((let577 (= let576 let412)))
  (let ((let578 mul_n58))
  (let ((let579 (ff.add let578 let568 let29)))
  (let ((let580 mul_n71))
  (let ((let581 (ff.mul let580 let579)))
  (let ((let582 (= let581 let575)))
  (let ((let583 (ff.add let446 let29)))
  (let ((let584 mul_n70))
  (let ((let585 (ff.mul let584 let583)))
  (let ((let586 (= let585 let580)))
  (let ((let587 mul_n69))
  (let ((let588 (ff.mul let587 let466)))
  (let ((let589 (= let588 let584)))
  (let ((let590 mul_n68))
  (let ((let591 (ff.mul let590 let472)))
  (let ((let592 (= let591 let587)))
  (let ((let593 mul_n56))
  (let ((let594 (ff.mul let593 let1)))
  (let ((let595 (ff.add let594 let29)))
  (let ((let596 (ff.mul let595 let571)))
  (let ((let597 (= let596 let590)))
  (let ((let598 mul_n67))
  (let ((let599 mul_n53))
  (let ((let600 (ff.mul let599 let1)))
  (let ((let601 (ff.add let600 let485 let448 let424 let570 let445)))
  (let ((let602 mul_n66))
  (let ((let603 (ff.add let521 let602 let520)))
  (let ((let604 (ff.mul let603 let601)))
  (let ((let605 (= let604 let598)))
  (let ((let606 (ff.mul let521 let107)))
  (let ((let607 (ff.add let606 let38)))
  (let ((let608 (ff.mul let607 let507)))
  (let ((let609 (= let608 let602)))
  (let ((let610 (ff.mul let578 let1)))
  (let ((let611 (ff.add let610 let567)))
  (let ((let612 (ff.mul let501 let1)))
  (let ((let613 (ff.add let612 let29)))
  (let ((let614 (ff.mul let613 let611)))
  (let ((let615 (= let614 let521)))
  (let ((let616 mul_n60))
  (let ((let617 (ff.mul let616 let1)))
  (let ((let618 (ff.add let617 let29)))
  (let ((let619 mul_n63))
  (let ((let620 (ff.mul let619 let618)))
  (let ((let621 (= let620 let501)))
  (let ((let622 (ff.mul let487 let1)))
  (let ((let623 (ff.add let622 let485 let479 let570 let29)))
  (let ((let624 mul_n62))
  (let ((let625 (ff.mul let624 let623)))
  (let ((let626 (= let625 let619)))
  (let ((let627 (ff.add let438 let29)))
  (let ((let628 mul_n61))
  (let ((let629 (ff.mul let628 let627)))
  (let ((let630 (= let629 let624)))
  (let ((let631 (ff.mul let567 let445)))
  (let ((let632 (= let631 let628)))
  (let ((let633 mul_n23))
  (let ((let634 (ff.mul let633 let1)))
  (let ((let635 (ff.add let634 let29)))
  (let ((let636 mul_n59))
  (let ((let637 (ff.mul let636 let635)))
  (let ((let638 (= let637 let616)))
  (let ((let639 (ff.mul let491 let534)))
  (let ((let640 (= let639 let636)))
  (let ((let641 (ff.add let594 let567)))
  (let ((let642 (ff.mul let461 let641)))
  (let ((let643 (= let642 let578)))
  (let ((let644 mul_n50))
  (let ((let645 mul_n30))
  (let ((let646 (ff.mul let645 let1)))
  (let ((let647 mul_n26))
  (let ((let648 (ff.mul let647 let1)))
  (let ((let649 (ff.add let422 let648 let646 let38)))
  (let ((let650 (ff.mul let649 let644)))
  (let ((let651 (= let650 let459)))
  (let ((let652 mul_n45))
  (let ((let653 (ff.mul let652 let1)))
  (let ((let654 (ff.add let653 let29)))
  (let ((let655 mul_n55))
  (let ((let656 (ff.mul let655 let654)))
  (let ((let657 (= let656 let593)))
  (let ((let658 (ff.add let474 let473 let479 let475 let495)))
  (let ((let659 (ff.mul let475 let658)))
  (let ((let660 (= let659 let655)))
  (let ((let661 (ff.mul let479 let38)))
  (let ((let662 (ff.mul let661 let476)))
  (let ((let663 (= let662 let494)))
  (let ((let664 (ff.add let570 let485 let29)))
  (let ((let665 (ff.mul let445 let38)))
  (let ((let666 (ff.mul let424 let38)))
  (let ((let667 (ff.mul let448 let38)))
  (let ((let668 (ff.add let667 let666 let665 let107)))
  (let ((let669 (ff.mul let668 let664)))
  (let ((let670 (= let669 let599)))
  (let ((let671 (ff.mul let424 let107)))
  (let ((let672 (ff.add let671 let38)))
  (let ((let673 (ff.mul let672 let583)))
  (let ((let674 (= let673 let448)))
  (let ((let675 (ff.mul let551 let644)))
  (let ((let676 (= let675 let445)))
  (let ((let677 e_n2))
  (let ((let678 (ff.mul let677 let1)))
  (let ((let679 (ff.add let678 let29)))
  (let ((let680 mul_n49))
  (let ((let681 (ff.mul let680 let679)))
  (let ((let682 (= let681 let644)))
  (let ((let683 i_n5))
  (let ((let684 (ff.mul let683 let1)))
  (let ((let685 (ff.add let684 let29)))
  (let ((let686 mul_n48))
  (let ((let687 (ff.mul let686 let685)))
  (let ((let688 (= let687 let680)))
  (let ((let689 (ff.mul let550 let1)))
  (let ((let690 mul_n19))
  (let ((let691 (ff.mul let690 let1)))
  (let ((let692 (ff.add let691 let689 let489 let437)))
  (let ((let693 mul_n47))
  (let ((let694 (ff.mul let693 let692)))
  (let ((let695 (= let694 let686)))
  (let ((let696 mul_n46))
  (let ((let697 (ff.mul let696 let633)))
  (let ((let698 (= let697 let693)))
  (let ((let699 (ff.mul let535 let654)))
  (let ((let700 (= let699 let696)))
  (let ((let701 mul_n44))
  (let ((let702 (ff.mul let701 let531)))
  (let ((let703 (= let702 let652)))
  (let ((let704 mul_n43))
  (let ((let705 (ff.mul let704 let508)))
  (let ((let706 (= let705 let701)))
  (let ((let707 mul_n42))
  (let ((let708 (ff.mul let707 let488)))
  (let ((let709 (= let708 let704)))
  (let ((let710 mul_n36))
  (let ((let711 (ff.mul let710 let1)))
  (let ((let712 (ff.add let711 let29)))
  (let ((let713 mul_n41))
  (let ((let714 (ff.mul let713 let712)))
  (let ((let715 (= let714 let707)))
  (let ((let716 mul_n31))
  (let ((let717 mul_n40))
  (let ((let718 (ff.mul let717 let716)))
  (let ((let719 (= let718 let713)))
  (let ((let720 mul_n39))
  (let ((let721 (ff.mul let720 let535)))
  (let ((let722 (= let721 let717)))
  (let ((let723 mul_n38))
  (let ((let724 (ff.mul let723 let424)))
  (let ((let725 (= let724 let720)))
  (let ((let726 mul_n37))
  (let ((let727 (ff.mul let726 let712)))
  (let ((let728 (= let727 let723)))
  (let ((let729 (ff.add let648 let29)))
  (let ((let730 d_n4))
  (let ((let731 (ff.mul let730 let729)))
  (let ((let732 (= let731 let726)))
  (let ((let733 mul_n35))
  (let ((let734 (ff.mul let733 let531)))
  (let ((let735 (= let734 let710)))
  (let ((let736 mul_n34))
  (let ((let737 (ff.mul let736 let692)))
  (let ((let738 (= let737 let733)))
  (let ((let739 mul_n33))
  (let ((let740 (ff.mul let739 let649)))
  (let ((let741 (= let740 let736)))
  (let ((let742 mul_n32))
  (let ((let743 (ff.mul let742 let489)))
  (let ((let744 (= let743 let739)))
  (let ((let745 (ff.mul let716 let1)))
  (let ((let746 (ff.add let745 let29)))
  (let ((let747 (ff.add let483 let486)))
  (let ((let748 (ff.mul let747 let746)))
  (let ((let749 (= let748 let742)))
  (let ((let750 (ff.add let560 let29)))
  (let ((let751 (ff.mul let750 let472)))
  (let ((let752 (= let751 let716)))
  (let ((let753 (ff.add let544 let38)))
  (let ((let754 (ff.mul let753 let729)))
  (let ((let755 (= let754 let645)))
  (let ((let756 (ff.mul let661 let664)))
  (let ((let757 (= let756 let487)))
  (let ((let758 (ff.mul let534 let1)))
  (let ((let759 (ff.add let758 let29)))
  (let ((let760 (ff.mul let511 let759)))
  (let ((let761 (= let760 let479)))
  (let ((let762 (ff.mul let759 let647)))
  (let ((let763 (= let762 let421)))
  (let ((let764 (ff.mul let428 let679)))
  (let ((let765 (= let764 let647)))
  (let ((let766 (ff.add let689 let489 let437)))
  (let ((let767 (ff.mul let437 let766)))
  (let ((let768 (= let767 let424)))
  (let ((let769 (ff.add let520 let29)))
  (let ((let770 (ff.mul let730 let769)))
  (let ((let771 (= let770 let428)))
  (let ((let772 (ff.mul let474 let1)))
  (let ((let773 (ff.add let560 let772 let472 let29)))
  (let ((let774 mul_n22))
  (let ((let775 (ff.mul let774 let773)))
  (let ((let776 (= let775 let633)))
  (let ((let777 (ff.mul let535 let1)))
  (let ((let778 (ff.add let777 let29)))
  (let ((let779 (ff.mul let778 let778)))
  (let ((let780 (= let779 let774)))
  (let ((let781 (ff.add let483 let677 let1)))
  (let ((let782 (ff.mul let466 let781)))
  (let ((let783 (= let782 let485)))
  (let ((let784 (ff.mul let491 let692)))
  (let ((let785 (= let784 let483)))
  (let ((let786 (ff.add let474 let473 let689 let475 let489 let437 let1)))
  (let ((let787 (ff.mul let683 let786)))
  (let ((let788 (= let787 let690)))
  (let ((let789 (ff.mul let515 let750)))
  (let ((let790 (= let789 let474)))
  (let ((let791 mul_n16))
  (let ((let792 (ff.mul let791 let569)))
  (let ((let793 (= let792 let475)))
  (let ((let794 (ff.add let473 let29)))
  (let ((let795 mul_n15))
  (let ((let796 (ff.mul let795 let794)))
  (let ((let797 (= let796 let791)))
  (let ((let798 mul_n14))
  (let ((let799 (ff.mul let798 let679)))
  (let ((let800 (= let799 let795)))
  (let ((let801 (ff.mul let730 let1)))
  (let ((let802 (ff.add let801 let29)))
  (let ((let803 mul_n13))
  (let ((let804 (ff.mul let803 let802)))
  (let ((let805 (= let804 let798)))
  (let ((let806 (ff.mul let685 let569)))
  (let ((let807 (= let806 let803)))
  (let ((let808 (ff.mul let437 let38)))
  (let ((let809 (ff.mul let808 let489)))
  (let ((let810 (= let809 let550)))
  (let ((let811 (ff.mul let464 let534)))
  (let ((let812 (= let811 let437)))
  (let ((let813 (and let812 let810 let807 let805 let800 let797 let793 let790 let788 let785 let783 let780 let776 let771 let768 let765 let763 let761 let757 let755 let752 let749 let744 let741 let738 let735 let732 let728 let725 let722 let719 let715 let709 let706 let703 let700 let698 let695 let688 let682 let676 let674 let670 let663 let660 let657 let651 let643 let640 let638 let632 let630 let626 let621 let615 let609 let605 let597 let592 let589 let586 let582 let577 let573 let566 let559 let557 let553 let548 let542 let537 let533 let528 let519 let510 let506 let500 let493 let482 let478 let469 let463 let457 let444 let436 let432 let420 let416)))
  (let ((let814 return_n0_alt))
  (let ((let815 return_n0))
  (let ((let816 (= let815 let814)))
  (let ((let817 (not let816)))
  (let ((let818 (= let730 let325)))
  (let ((let819 (= let464 let58)))
  (let ((let820 (= let535 let130)))
  (let ((let821 (= let677 let272)))
  (let ((let822 (= let534 let129)))
  (let ((let823 (= let472 let66)))
  (let ((let824 (= let567 let162)))
  (let ((let825 (= let507 let101)))
  (let ((let826 (= let489 let83)))
  (let ((let827 (= let683 let278)))
  (let ((let828 (and let827 let826 let825 let824 let823 let822 let821 let820 let819 let818)))
  (let ((let829 (and let828 let817 let813 let408)))
  let829
))))))))))))))))))))))))))))))))))))))))))))))))))))))))))))))))))))))))))))))))))))))))))))))))))))))))))))))))))))))))))))))))))))))))))))))))))))))))))))))))))))))))))))))))))))))))))))))))))))))))))))))))))))))))))))))))))))))))))))))))))))))))))))))))))))))))))))))))))))))))))))))))))))))))))))))))))))))))))))))))))))))))))))))))))))))))))))))))))))))))))))))))))))))))))))))))))))))))))))))))))))))))))))))))))))))))))))))))))))))))))))))))))))))))))))))))))))))))))))))))))))))))))))))))))))))))))))))))))))))))))))))))))))))))))))))))))))))))))))))))))))))))))))))))))))))))))))))))))))))))))))))))))))))))))))))))))))))))))))))))))))))))))))))))))))))))))))))))))))))))))))))))))))))))))))))))))))))))))))))))))))))))))))))))))))))))))))))))))))))))))))))))))))))))))))))))))))))))))))))))))))))))))))))))))))))))))))))
)
(check-sat)
